c CNF file corresponding to a (partial) station packing problem.
p cnf 4182 184
1 2 3 4 5 6 7 8 9 10 11 12 13 14 0
-1 -2 0
-1 -3 0
-1 -4 0
-1 -5 0
-1 -6 0
-1 -7 0
-1 -8 0
-1 -9 0
-1 -10 0
-1 -11 0
-1 -12 0
-1 -13 0
-1 -14 0
-2 -3 0
-2 -4 0
-2 -5 0
-2 -6 0
-2 -7 0
-2 -8 0
-2 -9 0
-2 -10 0
-2 -11 0
-2 -12 0
-2 -13 0
-2 -14 0
-3 -4 0
-3 -5 0
-3 -6 0
-3 -7 0
-3 -8 0
-3 -9 0
-3 -10 0
-3 -11 0
-3 -12 0
-3 -13 0
-3 -14 0
-4 -5 0
-4 -6 0
-4 -7 0
-4 -8 0
-4 -9 0
-4 -10 0
-4 -11 0
-4 -12 0
-4 -13 0
-4 -14 0
-5 -6 0
-5 -7 0
-5 -8 0
-5 -9 0
-5 -10 0
-5 -11 0
-5 -12 0
-5 -13 0
-5 -14 0
-6 -7 0
-6 -8 0
-6 -9 0
-6 -10 0
-6 -11 0
-6 -12 0
-6 -13 0
-6 -14 0
-7 -8 0
-7 -9 0
-7 -10 0
-7 -11 0
-7 -12 0
-7 -13 0
-7 -14 0
-8 -9 0
-8 -10 0
-8 -11 0
-8 -12 0
-8 -13 0
-8 -14 0
-9 -10 0
-9 -11 0
-9 -12 0
-9 -13 0
-9 -14 0
-10 -11 0
-10 -12 0
-10 -13 0
-10 -14 0
-11 -12 0
-11 -13 0
-11 -14 0
-12 -13 0
-12 -14 0
-13 -14 0
4169 4170 4171 4172 4173 4174 4175 4176 4177 4178 4179 4180 4181 4182 0
-4169 -4170 0
-4169 -4171 0
-4169 -4172 0
-4169 -4173 0
-4169 -4174 0
-4169 -4175 0
-4169 -4176 0
-4169 -4177 0
-4169 -4178 0
-4169 -4179 0
-4169 -4180 0
-4169 -4181 0
-4169 -4182 0
-4170 -4171 0
-4170 -4172 0
-4170 -4173 0
-4170 -4174 0
-4170 -4175 0
-4170 -4176 0
-4170 -4177 0
-4170 -4178 0
-4170 -4179 0
-4170 -4180 0
-4170 -4181 0
-4170 -4182 0
-4171 -4172 0
-4171 -4173 0
-4171 -4174 0
-4171 -4175 0
-4171 -4176 0
-4171 -4177 0
-4171 -4178 0
-4171 -4179 0
-4171 -4180 0
-4171 -4181 0
-4171 -4182 0
-4172 -4173 0
-4172 -4174 0
-4172 -4175 0
-4172 -4176 0
-4172 -4177 0
-4172 -4178 0
-4172 -4179 0
-4172 -4180 0
-4172 -4181 0
-4172 -4182 0
-4173 -4174 0
-4173 -4175 0
-4173 -4176 0
-4173 -4177 0
-4173 -4178 0
-4173 -4179 0
-4173 -4180 0
-4173 -4181 0
-4173 -4182 0
-4174 -4175 0
-4174 -4176 0
-4174 -4177 0
-4174 -4178 0
-4174 -4179 0
-4174 -4180 0
-4174 -4181 0
-4174 -4182 0
-4175 -4176 0
-4175 -4177 0
-4175 -4178 0
-4175 -4179 0
-4175 -4180 0
-4175 -4181 0
-4175 -4182 0
-4176 -4177 0
-4176 -4178 0
-4176 -4179 0
-4176 -4180 0
-4176 -4181 0
-4176 -4182 0
-4177 -4178 0
-4177 -4179 0
-4177 -4180 0
-4177 -4181 0
-4177 -4182 0
-4178 -4179 0
-4178 -4180 0
-4178 -4181 0
-4178 -4182 0
-4179 -4180 0
-4179 -4181 0
-4179 -4182 0
-4180 -4181 0
-4180 -4182 0
-4181 -4182 0
